\* Class_Selection *\
Maximize
OBJ: 10 x_11 + 10 x_13 + 10 x_14 + 10 x_17 + 10 x_2 + 10 x_23 + 10 x_24
 + 10 x_26 + 10 x_27 + 10 x_3 + 10 x_30 + 10 x_36 + 10 x_38 + 10 x_5 + 10 x_7
 + 10 x_8
Subject To
MaximumUnits: 4 x_11 + 2 x_13 + 3 x_14 + 3 x_17 + 3 x_2 + 4 x_23 + 3 x_24
 + 3 x_26 + 2 x_27 + 3 x_3 + 3 x_30 + 3 x_36 + 3 x_38 + 2 x_5 + 3 x_7 + 3 x_8
 <= 20
MinimumUnits: 4 x_11 + 2 x_13 + 3 x_14 + 3 x_17 + 3 x_2 + 4 x_23 + 3 x_24
 + 3 x_26 + 2 x_27 + 3 x_3 + 3 x_30 + 3 x_36 + 3 x_38 + 2 x_5 + 3 x_7 + 3 x_8
 >= 4
_C1: x_17 + x_2 <= 1
_C10: x_27 + x_7 <= 1
_C11: x_13 + x_8 <= 1
_C12: x_23 + x_8 <= 1
_C13: x_38 + x_8 <= 1
_C14: x_27 + x_8 <= 1
_C15: x_11 + x_14 <= 1
_C16: x_11 + x_14 <= 1
_C17: x_13 + x_23 <= 1
_C18: x_13 + x_38 <= 1
_C19: x_17 + x_36 <= 1
_C2: x_2 + x_36 <= 1
_C20: x_23 + x_38 <= 1
_C21: x_23 + x_24 <= 1
_C22: x_23 + x_38 <= 1
_C23: x_24 + x_38 <= 1
_C24: x_26 + x_36 <= 1
_C25: x_2 = 1
_C3: x_23 + x_3 <= 1
_C4: x_24 + x_3 <= 1
_C5: x_3 + x_38 <= 1
_C6: x_30 + x_5 <= 1
_C7: x_11 + x_7 <= 1
_C8: x_14 + x_7 <= 1
_C9: x_7 + x_8 <= 1
Binaries
x_11
x_13
x_14
x_17
x_2
x_23
x_24
x_26
x_27
x_3
x_30
x_36
x_38
x_5
x_7
x_8
End
